c graph colorability of graph:
c .
c
c Generated with `cnfgen`
c (C) 2012-2019 Massimo Lauria <massimo.lauria@uniroma1.it>
c https://massimolauria.net/cnfgen
c
c COMMAND LINE: cnfgen --seed 1 -o ./kcolor/kcolor.gnm130-200.s1.k3.cnf kcolor --gnm 130 200 --savegraph ./kcolor/kcolor.gnm130-200.s1.graph --graphformat dot 3
c
p cnf 390 1120
1 2 3 0
-1 -2 0
-1 -3 0
-2 -3 0
4 5 6 0
-4 -5 0
-4 -6 0
-5 -6 0
7 8 9 0
-7 -8 0
-7 -9 0
-8 -9 0
10 11 12 0
-10 -11 0
-10 -12 0
-11 -12 0
13 14 15 0
-13 -14 0
-13 -15 0
-14 -15 0
16 17 18 0
-16 -17 0
-16 -18 0
-17 -18 0
19 20 21 0
-19 -20 0
-19 -21 0
-20 -21 0
22 23 24 0
-22 -23 0
-22 -24 0
-23 -24 0
25 26 27 0
-25 -26 0
-25 -27 0
-26 -27 0
28 29 30 0
-28 -29 0
-28 -30 0
-29 -30 0
31 32 33 0
-31 -32 0
-31 -33 0
-32 -33 0
34 35 36 0
-34 -35 0
-34 -36 0
-35 -36 0
37 38 39 0
-37 -38 0
-37 -39 0
-38 -39 0
40 41 42 0
-40 -41 0
-40 -42 0
-41 -42 0
43 44 45 0
-43 -44 0
-43 -45 0
-44 -45 0
46 47 48 0
-46 -47 0
-46 -48 0
-47 -48 0
49 50 51 0
-49 -50 0
-49 -51 0
-50 -51 0
52 53 54 0
-52 -53 0
-52 -54 0
-53 -54 0
55 56 57 0
-55 -56 0
-55 -57 0
-56 -57 0
58 59 60 0
-58 -59 0
-58 -60 0
-59 -60 0
61 62 63 0
-61 -62 0
-61 -63 0
-62 -63 0
64 65 66 0
-64 -65 0
-64 -66 0
-65 -66 0
67 68 69 0
-67 -68 0
-67 -69 0
-68 -69 0
70 71 72 0
-70 -71 0
-70 -72 0
-71 -72 0
73 74 75 0
-73 -74 0
-73 -75 0
-74 -75 0
76 77 78 0
-76 -77 0
-76 -78 0
-77 -78 0
79 80 81 0
-79 -80 0
-79 -81 0
-80 -81 0
82 83 84 0
-82 -83 0
-82 -84 0
-83 -84 0
85 86 87 0
-85 -86 0
-85 -87 0
-86 -87 0
88 89 90 0
-88 -89 0
-88 -90 0
-89 -90 0
91 92 93 0
-91 -92 0
-91 -93 0
-92 -93 0
94 95 96 0
-94 -95 0
-94 -96 0
-95 -96 0
97 98 99 0
-97 -98 0
-97 -99 0
-98 -99 0
100 101 102 0
-100 -101 0
-100 -102 0
-101 -102 0
103 104 105 0
-103 -104 0
-103 -105 0
-104 -105 0
106 107 108 0
-106 -107 0
-106 -108 0
-107 -108 0
109 110 111 0
-109 -110 0
-109 -111 0
-110 -111 0
112 113 114 0
-112 -113 0
-112 -114 0
-113 -114 0
115 116 117 0
-115 -116 0
-115 -117 0
-116 -117 0
118 119 120 0
-118 -119 0
-118 -120 0
-119 -120 0
121 122 123 0
-121 -122 0
-121 -123 0
-122 -123 0
124 125 126 0
-124 -125 0
-124 -126 0
-125 -126 0
127 128 129 0
-127 -128 0
-127 -129 0
-128 -129 0
130 131 132 0
-130 -131 0
-130 -132 0
-131 -132 0
133 134 135 0
-133 -134 0
-133 -135 0
-134 -135 0
136 137 138 0
-136 -137 0
-136 -138 0
-137 -138 0
139 140 141 0
-139 -140 0
-139 -141 0
-140 -141 0
142 143 144 0
-142 -143 0
-142 -144 0
-143 -144 0
145 146 147 0
-145 -146 0
-145 -147 0
-146 -147 0
148 149 150 0
-148 -149 0
-148 -150 0
-149 -150 0
151 152 153 0
-151 -152 0
-151 -153 0
-152 -153 0
154 155 156 0
-154 -155 0
-154 -156 0
-155 -156 0
157 158 159 0
-157 -158 0
-157 -159 0
-158 -159 0
160 161 162 0
-160 -161 0
-160 -162 0
-161 -162 0
163 164 165 0
-163 -164 0
-163 -165 0
-164 -165 0
166 167 168 0
-166 -167 0
-166 -168 0
-167 -168 0
169 170 171 0
-169 -170 0
-169 -171 0
-170 -171 0
172 173 174 0
-172 -173 0
-172 -174 0
-173 -174 0
175 176 177 0
-175 -176 0
-175 -177 0
-176 -177 0
178 179 180 0
-178 -179 0
-178 -180 0
-179 -180 0
181 182 183 0
-181 -182 0
-181 -183 0
-182 -183 0
184 185 186 0
-184 -185 0
-184 -186 0
-185 -186 0
187 188 189 0
-187 -188 0
-187 -189 0
-188 -189 0
190 191 192 0
-190 -191 0
-190 -192 0
-191 -192 0
193 194 195 0
-193 -194 0
-193 -195 0
-194 -195 0
196 197 198 0
-196 -197 0
-196 -198 0
-197 -198 0
199 200 201 0
-199 -200 0
-199 -201 0
-200 -201 0
202 203 204 0
-202 -203 0
-202 -204 0
-203 -204 0
205 206 207 0
-205 -206 0
-205 -207 0
-206 -207 0
208 209 210 0
-208 -209 0
-208 -210 0
-209 -210 0
211 212 213 0
-211 -212 0
-211 -213 0
-212 -213 0
214 215 216 0
-214 -215 0
-214 -216 0
-215 -216 0
217 218 219 0
-217 -218 0
-217 -219 0
-218 -219 0
220 221 222 0
-220 -221 0
-220 -222 0
-221 -222 0
223 224 225 0
-223 -224 0
-223 -225 0
-224 -225 0
226 227 228 0
-226 -227 0
-226 -228 0
-227 -228 0
229 230 231 0
-229 -230 0
-229 -231 0
-230 -231 0
232 233 234 0
-232 -233 0
-232 -234 0
-233 -234 0
235 236 237 0
-235 -236 0
-235 -237 0
-236 -237 0
238 239 240 0
-238 -239 0
-238 -240 0
-239 -240 0
241 242 243 0
-241 -242 0
-241 -243 0
-242 -243 0
244 245 246 0
-244 -245 0
-244 -246 0
-245 -246 0
247 248 249 0
-247 -248 0
-247 -249 0
-248 -249 0
250 251 252 0
-250 -251 0
-250 -252 0
-251 -252 0
253 254 255 0
-253 -254 0
-253 -255 0
-254 -255 0
256 257 258 0
-256 -257 0
-256 -258 0
-257 -258 0
259 260 261 0
-259 -260 0
-259 -261 0
-260 -261 0
262 263 264 0
-262 -263 0
-262 -264 0
-263 -264 0
265 266 267 0
-265 -266 0
-265 -267 0
-266 -267 0
268 269 270 0
-268 -269 0
-268 -270 0
-269 -270 0
271 272 273 0
-271 -272 0
-271 -273 0
-272 -273 0
274 275 276 0
-274 -275 0
-274 -276 0
-275 -276 0
277 278 279 0
-277 -278 0
-277 -279 0
-278 -279 0
280 281 282 0
-280 -281 0
-280 -282 0
-281 -282 0
283 284 285 0
-283 -284 0
-283 -285 0
-284 -285 0
286 287 288 0
-286 -287 0
-286 -288 0
-287 -288 0
289 290 291 0
-289 -290 0
-289 -291 0
-290 -291 0
292 293 294 0
-292 -293 0
-292 -294 0
-293 -294 0
295 296 297 0
-295 -296 0
-295 -297 0
-296 -297 0
298 299 300 0
-298 -299 0
-298 -300 0
-299 -300 0
301 302 303 0
-301 -302 0
-301 -303 0
-302 -303 0
304 305 306 0
-304 -305 0
-304 -306 0
-305 -306 0
307 308 309 0
-307 -308 0
-307 -309 0
-308 -309 0
310 311 312 0
-310 -311 0
-310 -312 0
-311 -312 0
313 314 315 0
-313 -314 0
-313 -315 0
-314 -315 0
316 317 318 0
-316 -317 0
-316 -318 0
-317 -318 0
319 320 321 0
-319 -320 0
-319 -321 0
-320 -321 0
322 323 324 0
-322 -323 0
-322 -324 0
-323 -324 0
325 326 327 0
-325 -326 0
-325 -327 0
-326 -327 0
328 329 330 0
-328 -329 0
-328 -330 0
-329 -330 0
331 332 333 0
-331 -332 0
-331 -333 0
-332 -333 0
334 335 336 0
-334 -335 0
-334 -336 0
-335 -336 0
337 338 339 0
-337 -338 0
-337 -339 0
-338 -339 0
340 341 342 0
-340 -341 0
-340 -342 0
-341 -342 0
343 344 345 0
-343 -344 0
-343 -345 0
-344 -345 0
346 347 348 0
-346 -347 0
-346 -348 0
-347 -348 0
349 350 351 0
-349 -350 0
-349 -351 0
-350 -351 0
352 353 354 0
-352 -353 0
-352 -354 0
-353 -354 0
355 356 357 0
-355 -356 0
-355 -357 0
-356 -357 0
358 359 360 0
-358 -359 0
-358 -360 0
-359 -360 0
361 362 363 0
-361 -362 0
-361 -363 0
-362 -363 0
364 365 366 0
-364 -365 0
-364 -366 0
-365 -366 0
367 368 369 0
-367 -368 0
-367 -369 0
-368 -369 0
370 371 372 0
-370 -371 0
-370 -372 0
-371 -372 0
373 374 375 0
-373 -374 0
-373 -375 0
-374 -375 0
376 377 378 0
-376 -377 0
-376 -378 0
-377 -378 0
379 380 381 0
-379 -380 0
-379 -381 0
-380 -381 0
382 383 384 0
-382 -383 0
-382 -384 0
-383 -384 0
385 386 387 0
-385 -386 0
-385 -387 0
-386 -387 0
388 389 390 0
-388 -389 0
-388 -390 0
-389 -390 0
-1 -25 0
-2 -26 0
-3 -27 0
-1 -76 0
-2 -77 0
-3 -78 0
-1 -97 0
-2 -98 0
-3 -99 0
-1 -109 0
-2 -110 0
-3 -111 0
-1 -193 0
-2 -194 0
-3 -195 0
-1 -217 0
-2 -218 0
-3 -219 0
-1 -355 0
-2 -356 0
-3 -357 0
-4 -223 0
-5 -224 0
-6 -225 0
-4 -364 0
-5 -365 0
-6 -366 0
-7 -22 0
-8 -23 0
-9 -24 0
-7 -199 0
-8 -200 0
-9 -201 0
-7 -262 0
-8 -263 0
-9 -264 0
-7 -343 0
-8 -344 0
-9 -345 0
-7 -358 0
-8 -359 0
-9 -360 0
-10 -157 0
-11 -158 0
-12 -159 0
-10 -226 0
-11 -227 0
-12 -228 0
-10 -319 0
-11 -320 0
-12 -321 0
-16 -307 0
-17 -308 0
-18 -309 0
-19 -154 0
-20 -155 0
-21 -156 0
-19 -160 0
-20 -161 0
-21 -162 0
-19 -163 0
-20 -164 0
-21 -165 0
-19 -211 0
-20 -212 0
-21 -213 0
-19 -220 0
-20 -221 0
-21 -222 0
-19 -265 0
-20 -266 0
-21 -267 0
-19 -316 0
-20 -317 0
-21 -318 0
-19 -388 0
-20 -389 0
-21 -390 0
-22 -142 0
-23 -143 0
-24 -144 0
-22 -226 0
-23 -227 0
-24 -228 0
-25 -70 0
-26 -71 0
-27 -72 0
-25 -229 0
-26 -230 0
-27 -231 0
-28 -121 0
-29 -122 0
-30 -123 0
-28 -262 0
-29 -263 0
-30 -264 0
-28 -370 0
-29 -371 0
-30 -372 0
-28 -388 0
-29 -389 0
-30 -390 0
-31 -178 0
-32 -179 0
-33 -180 0
-31 -184 0
-32 -185 0
-33 -186 0
-31 -199 0
-32 -200 0
-33 -201 0
-31 -283 0
-32 -284 0
-33 -285 0
-31 -295 0
-32 -296 0
-33 -297 0
-31 -385 0
-32 -386 0
-33 -387 0
-34 -61 0
-35 -62 0
-36 -63 0
-34 -64 0
-35 -65 0
-36 -66 0
-34 -88 0
-35 -89 0
-36 -90 0
-34 -223 0
-35 -224 0
-36 -225 0
-34 -319 0
-35 -320 0
-36 -321 0
-34 -355 0
-35 -356 0
-36 -357 0
-37 -115 0
-38 -116 0
-39 -117 0
-37 -244 0
-38 -245 0
-39 -246 0
-40 -55 0
-41 -56 0
-42 -57 0
-40 -262 0
-41 -263 0
-42 -264 0
-43 -97 0
-44 -98 0
-45 -99 0
-46 -64 0
-47 -65 0
-48 -66 0
-46 -112 0
-47 -113 0
-48 -114 0
-46 -166 0
-47 -167 0
-48 -168 0
-46 -187 0
-47 -188 0
-48 -189 0
-49 -154 0
-50 -155 0
-51 -156 0
-49 -166 0
-50 -167 0
-51 -168 0
-49 -253 0
-50 -254 0
-51 -255 0
-52 -214 0
-53 -215 0
-54 -216 0
-52 -301 0
-53 -302 0
-54 -303 0
-55 -286 0
-56 -287 0
-57 -288 0
-58 -136 0
-59 -137 0
-60 -138 0
-58 -205 0
-59 -206 0
-60 -207 0
-58 -238 0
-59 -239 0
-60 -240 0
-61 -142 0
-62 -143 0
-63 -144 0
-61 -196 0
-62 -197 0
-63 -198 0
-61 -304 0
-62 -305 0
-63 -306 0
-64 -94 0
-65 -95 0
-66 -96 0
-64 -109 0
-65 -110 0
-66 -111 0
-64 -187 0
-65 -188 0
-66 -189 0
-64 -250 0
-65 -251 0
-66 -252 0
-64 -358 0
-65 -359 0
-66 -360 0
-67 -109 0
-68 -110 0
-69 -111 0
-70 -247 0
-71 -248 0
-72 -249 0
-70 -295 0
-71 -296 0
-72 -297 0
-73 -85 0
-74 -86 0
-75 -87 0
-73 -238 0
-74 -239 0
-75 -240 0
-76 -325 0
-77 -326 0
-78 -327 0
-79 -106 0
-80 -107 0
-81 -108 0
-79 -286 0
-80 -287 0
-81 -288 0
-79 -292 0
-80 -293 0
-81 -294 0
-82 -163 0
-83 -164 0
-84 -165 0
-82 -259 0
-83 -260 0
-84 -261 0
-85 -103 0
-86 -104 0
-87 -105 0
-85 -283 0
-86 -284 0
-87 -285 0
-85 -325 0
-86 -326 0
-87 -327 0
-88 -211 0
-89 -212 0
-90 -213 0
-88 -349 0
-89 -350 0
-90 -351 0
-91 -196 0
-92 -197 0
-93 -198 0
-91 -250 0
-92 -251 0
-93 -252 0
-94 -160 0
-95 -161 0
-96 -162 0
-94 -226 0
-95 -227 0
-96 -228 0
-100 -118 0
-101 -119 0
-102 -120 0
-103 -145 0
-104 -146 0
-105 -147 0
-103 -205 0
-104 -206 0
-105 -207 0
-103 -250 0
-104 -251 0
-105 -252 0
-106 -214 0
-107 -215 0
-108 -216 0
-109 -178 0
-110 -179 0
-111 -180 0
-109 -199 0
-110 -200 0
-111 -201 0
-109 -313 0
-110 -314 0
-111 -315 0
-109 -328 0
-110 -329 0
-111 -330 0
-109 -343 0
-110 -344 0
-111 -345 0
-112 -169 0
-113 -170 0
-114 -171 0
-115 -184 0
-116 -185 0
-117 -186 0
-115 -229 0
-116 -230 0
-117 -231 0
-115 -250 0
-116 -251 0
-117 -252 0
-118 -259 0
-119 -260 0
-120 -261 0
-118 -262 0
-119 -263 0
-120 -264 0
-121 -127 0
-122 -128 0
-123 -129 0
-121 -232 0
-122 -233 0
-123 -234 0
-124 -208 0
-125 -209 0
-126 -210 0
-124 -364 0
-125 -365 0
-126 -366 0
-127 -307 0
-128 -308 0
-129 -309 0
-130 -202 0
-131 -203 0
-132 -204 0
-130 -235 0
-131 -236 0
-132 -237 0
-130 -244 0
-131 -245 0
-132 -246 0
-130 -250 0
-131 -251 0
-132 -252 0
-133 -184 0
-134 -185 0
-135 -186 0
-133 -208 0
-134 -209 0
-135 -210 0
-133 -268 0
-134 -269 0
-135 -270 0
-133 -361 0
-134 -362 0
-135 -363 0
-136 -151 0
-137 -152 0
-138 -153 0
-139 -286 0
-140 -287 0
-141 -288 0
-142 -286 0
-143 -287 0
-144 -288 0
-145 -355 0
-146 -356 0
-147 -357 0
-151 -166 0
-152 -167 0
-153 -168 0
-151 -250 0
-152 -251 0
-153 -252 0
-151 -328 0
-152 -329 0
-153 -330 0
-151 -388 0
-152 -389 0
-153 -390 0
-154 -232 0
-155 -233 0
-156 -234 0
-154 -388 0
-155 -389 0
-156 -390 0
-157 -298 0
-158 -299 0
-159 -300 0
-160 -190 0
-161 -191 0
-162 -192 0
-160 -256 0
-161 -257 0
-162 -258 0
-160 -262 0
-161 -263 0
-162 -264 0
-160 -274 0
-161 -275 0
-162 -276 0
-169 -205 0
-170 -206 0
-171 -207 0
-169 -280 0
-170 -281 0
-171 -282 0
-169 -388 0
-170 -389 0
-171 -390 0
-172 -235 0
-173 -236 0
-174 -237 0
-172 -325 0
-173 -326 0
-174 -327 0
-172 -331 0
-173 -332 0
-174 -333 0
-175 -385 0
-176 -386 0
-177 -387 0
-178 -199 0
-179 -200 0
-180 -201 0
-178 -202 0
-179 -203 0
-180 -204 0
-178 -283 0
-179 -284 0
-180 -285 0
-181 -271 0
-182 -272 0
-183 -273 0
-184 -244 0
-185 -245 0
-186 -246 0
-184 -358 0
-185 -359 0
-186 -360 0
-187 -277 0
-188 -278 0
-189 -279 0
-187 -358 0
-188 -359 0
-189 -360 0
-190 -271 0
-191 -272 0
-192 -273 0
-190 -355 0
-191 -356 0
-192 -357 0
-196 -292 0
-197 -293 0
-198 -294 0
-196 -343 0
-197 -344 0
-198 -345 0
-199 -364 0
-200 -365 0
-201 -366 0
-202 -220 0
-203 -221 0
-204 -222 0
-202 -229 0
-203 -230 0
-204 -231 0
-205 -271 0
-206 -272 0
-207 -273 0
-205 -295 0
-206 -296 0
-207 -297 0
-211 -388 0
-212 -389 0
-213 -390 0
-214 -313 0
-215 -314 0
-216 -315 0
-214 -340 0
-215 -341 0
-216 -342 0
-214 -373 0
-215 -374 0
-216 -375 0
-217 -280 0
-218 -281 0
-219 -282 0
-217 -343 0
-218 -344 0
-219 -345 0
-220 -238 0
-221 -239 0
-222 -240 0
-220 -274 0
-221 -275 0
-222 -276 0
-220 -334 0
-221 -335 0
-222 -336 0
-226 -376 0
-227 -377 0
-228 -378 0
-232 -295 0
-233 -296 0
-234 -297 0
-232 -301 0
-233 -302 0
-234 -303 0
-232 -388 0
-233 -389 0
-234 -390 0
-238 -241 0
-239 -242 0
-240 -243 0
-238 -385 0
-239 -386 0
-240 -387 0
-241 -283 0
-242 -284 0
-243 -285 0
-241 -361 0
-242 -362 0
-243 -363 0
-244 -310 0
-245 -311 0
-246 -312 0
-247 -316 0
-248 -317 0
-249 -318 0
-256 -358 0
-257 -359 0
-258 -360 0
-265 -283 0
-266 -284 0
-267 -285 0
-268 -280 0
-269 -281 0
-270 -282 0
-271 -274 0
-272 -275 0
-273 -276 0
-271 -337 0
-272 -338 0
-273 -339 0
-274 -289 0
-275 -290 0
-276 -291 0
-274 -364 0
-275 -365 0
-276 -366 0
-277 -340 0
-278 -341 0
-279 -342 0
-277 -349 0
-278 -350 0
-279 -351 0
-280 -376 0
-281 -377 0
-282 -378 0
-283 -328 0
-284 -329 0
-285 -330 0
-292 -331 0
-293 -332 0
-294 -333 0
-295 -376 0
-296 -377 0
-297 -378 0
-301 -379 0
-302 -380 0
-303 -381 0
-301 -385 0
-302 -386 0
-303 -387 0
-310 -331 0
-311 -332 0
-312 -333 0
-319 -328 0
-320 -329 0
-321 -330 0
-322 -382 0
-323 -383 0
-324 -384 0
-349 -379 0
-350 -380 0
-351 -381 0
-364 -373 0
-365 -374 0
-366 -375 0
-364 -388 0
-365 -389 0
-366 -390 0
